0 96 90
1 14 13
2 91 43
3 55 29
4 73 38
5 98 33
6 27 96
7 20 24
8 61 11
9 27 47
10 64 83
11 62 51
12 79 31
13 86 24
14 92 26
15 71 32
16 29 18
17 64 16
18 45 36
19 78 93
20 85 31
21 14 35
22 83 31
23 77 25
24 87 89
25 24 15
26 41 86
27 94 71
28 82 10
29 43 72